10
5
5
8 4 -3 -3 8 
-113 -98 126 103 199 
-9 -6 -4 8 -4 
-137 5 -200 -115 -0 
8 0 15 10 11 
0 0 0 0 0 
0 -1 0 0 0 
9 0 0 0 0 
0 0 0 0 11 
0 15 0 0 2 
0 11 0 1 6 
0 0 5 0 0 
0 8 0 0 5 
0 0 0 0 0 
17 0 0 0 0 
0 8 0 0 0 
0 0 6 0 0 
0 0 0 8 0 
0 0 0 0 -1 
0 0 0 0 0 
0 0 0 0 0 
0 0 0 0 0 
0 0 0 0 0 
1 1 1 1 1 
92 67 87 70 84 61 65 67 83 1 
1 1 1 1 1 1 1 1 1 1 
